HmaxDs = 1.500000
HmaxUB_percent = 1.057506
HmaxUB_real = 5883.274781
FTnetDs = 1.500000
FTnetUB_percent = 1.987166
FTnetUB_real = 16834.593868
TIFgap = 0.300000
LimCIPF = 70.717829
SCIP version 1.1.0 [precision: 8 byte] [memory: block] [mode: optimized] [LP solver: Clp 1.8.2]
Copyright (c) 2002-2008 Konrad-Zuse-Zentrum fuer Informationstechnik Berlin (ZIB)

reading user parameter file </home/fabio/docs/hierarquia/models/scip.set>

read problem <data.N30.I1.s1.cluster1.T5.GL1.W1.TIFgap0.3.mps.gz>
============

original problem has 175 variables (90 bin, 0 int, 0 impl, 85 cont) and 102 constraints

solve problem
=============

presolving:
(round 1) 3 del vars, 3 del conss, 4 chg bounds, 0 chg sides, 20 chg coeffs, 0 upgd conss, 0 impls, 20 clqs
(round 2) 5 del vars, 3 del conss, 4 chg bounds, 1 chg sides, 20 chg coeffs, 0 upgd conss, 0 impls, 20 clqs
(round 3) 5 del vars, 3 del conss, 4 chg bounds, 3 chg sides, 20 chg coeffs, 0 upgd conss, 0 impls, 20 clqs
(round 4) 5 del vars, 4 del conss, 4 chg bounds, 3 chg sides, 20 chg coeffs, 21 upgd conss, 0 impls, 20 clqs
(round 5) 8 del vars, 4 del conss, 4 chg bounds, 3 chg sides, 20 chg coeffs, 21 upgd conss, 638 impls, 19 clqs
presolving (6 rounds):
 8 deleted vars, 4 deleted constraints, 4 tightened bounds, 0 added holes, 3 changed sides, 20 changed coefficients
 638 implications, 19 cliques
presolved problem has 167 variables (87 bin, 0 int, 0 impl, 80 cont) and 98 constraints
      1 constraints of type <knapsack>
     20 constraints of type <setppc>
     77 constraints of type <linear>
Presolving Time: 0.02

 time | node  | left  |LP iter| mem |mdpt |frac |vars |cons |ccons|cols |rows |cuts |confs|strbr|  dualbound   | primalbound  |  gap   
  0.0s|     1 |     0 |    61 | 526k|   0 |  34 | 167 |  98 |  98 | 167 |  98 |   0 |   0 |   0 | 6.623518e+01 |      --      |    Inf 
  0.1s|     1 |     0 |   681 | 570k|   0 |  31 | 167 |  98 |  98 | 167 | 114 |  16 |   0 |   0 | 6.976123e+03 |      --      |    Inf 
  0.1s|     1 |     0 |   717 | 600k|   0 |  31 | 167 |  98 |  98 | 167 | 132 |  34 |   0 |   0 | 7.918747e+03 |      --      |    Inf 
  0.2s|     1 |     0 |   766 | 618k|   0 |  32 | 167 |  98 |  98 | 167 | 144 |  46 |   0 |   0 | 8.274868e+03 |      --      |    Inf 
  0.2s|     1 |     0 |   803 | 634k|   0 |  33 | 167 |  98 |  98 | 167 | 160 |  62 |   0 |   0 | 8.525585e+03 |      --      |    Inf 
  0.3s|     1 |     0 |   816 | 642k|   0 |  34 | 167 |  98 |  98 | 167 | 165 |  67 |   0 |   0 | 8.540119e+03 |      --      |    Inf 
  0.3s|     1 |     0 |   829 | 649k|   0 |  34 | 167 |  98 |  98 | 167 | 169 |  71 |   0 |   0 | 8.547103e+03 |      --      |    Inf 
  0.9s|     1 |     2 |   829 | 650k|   0 |  34 | 167 |  98 |  98 | 167 | 169 |  71 |   0 |  34 | 8.547103e+03 |      --      |    Inf 

SCIP Status        : problem is solved [infeasible]
Solving Time (sec) : 1.25
Solving Nodes      : 5
Primal Bound       : +1.00000000000000e+20 (0 solutions)
Dual Bound         : +1.00000000000000e+20
Gap                : 0.00 %

primal solution:
================

no solution available

Statistics
==========

SCIP Status        : problem is solved [infeasible]
Solving Time       :       1.25
Original Problem   :
  Problem name     : labtel
  Variables        : 175 (90 binary, 0 integer, 0 implicit integer, 85 continuous)
  Constraints      : 102 initial, 102 maximal
Presolved Problem  :
  Problem name     : t_labtel
  Variables        : 167 (87 binary, 0 integer, 0 implicit integer, 80 continuous)
  Constraints      : 98 initial, 98 maximal
Presolvers         :       Time  FixedVars   AggrVars   ChgTypes  ChgBounds   AddHoles    DelCons   ChgSides   ChgCoefs
  trivial          :       0.00          0          0          0          0          0          0          0          0
  dualfix          :       0.00          0          0          0          0          0          0          0          0
  boundshift       :       0.00          0          0          0          0          0          0          0          0
  inttobinary      :       0.00          0          0          0          0          0          0          0          0
  implics          :       0.00          0          0          0          0          0          0          0          0
  probing          :       0.02          3          0          0          0          0          0          0          0
  knapsack         :       0.00          0          0          0          0          0          0          0          0
  setppc           :       0.00          0          0          0          0          0          0          0          0
  linear           :       0.00          0          5          0          4          0          4          3         20
  root node        :          -         23          -          -         23          -          -          -          -
Constraints        :     Number  #Separate #Propagate    #EnfoLP    #EnfoPS    Cutoffs    DomReds       Cuts      Conss   Children
  integral         :          0          0          0          6          0          1          3          0          0          4
  knapsack         :          1          7        245          0          0          0          0          0          0          0
  setppc           :         20          7        245          0          0          0         57          0          0          0
  linear           :         77          7        245          0          0          3          6          0          0          0
  countsols        :          0          0          0          0          0          0          0          0          0          0
Constraint Timings :  TotalTime   Separate  Propagate     EnfoLP     EnfoPS
  integral         :       0.63       0.00       0.00       0.63       0.00
  knapsack         :       0.00       0.00       0.00       0.00       0.00
  setppc           :       0.00       0.00       0.00       0.00       0.00
  linear           :       0.00       0.00       0.00       0.00       0.00
  countsols        :       0.00       0.00       0.00       0.00       0.00
Propagators        :       Time      Calls    Cutoffs    DomReds
  rootredcost      :       0.00          0          0          0
  pseudoobj        :       0.00         24          0          0
Conflict Analysis  :       Time      Calls    Success  Conflicts   Literals    Reconvs ReconvLits   LP Iters
  propagation      :       0.00          0          0          0        0.0          0        0.0          -
  infeasible LP    :       0.00          2          0          0        0.0          0        0.0          0
  bound exceed. LP :       0.00          0          0          0        0.0          0        0.0          0
  strong branching :       0.00          0          0          0        0.0          0        0.0          0
  pseudo solution  :       0.00          0          0          0        0.0          0        0.0          -
  applied globally :          -          -          -          0        0.0          -          -          -
  applied locally  :          -          -          -          0        0.0          -          -          -
Separators         :       Time      Calls    Cutoffs    DomReds       Cuts      Conss
  cut pool         :       0.00          6          -          -          2          -    (maximal pool size: 121)
  redcost          :       0.00         12          0          0          0          0
  impliedbounds    :       0.00          7          0          0          0          0
  intobj           :       0.00          0          0          0          0          0
  gomory           :       0.00          7          0          0          7          0
  strongcg         :       0.03          7          0          0          0          0
  cmir             :       0.15          7          0          0        104          0
  flowcover        :       0.14          7          0          0         19          0
  clique           :       0.00          7          0          0          0          0
  zerohalf         :       0.00          0          0          0          0          0
  mcf              :       0.00          0          0          0          0          0
Pricers            :       Time      Calls       Vars
  problem variables:       0.00          0          0
Branching Rules    :       Time      Calls    Cutoffs    DomReds       Cuts      Conss   Children
  relpscost        :       0.63          6          1          3          0          0          4
  pscost           :       0.00          0          0          0          0          0          0
  inference        :       0.00          0          0          0          0          0          0
  mostinf          :       0.00          0          0          0          0          0          0
  leastinf         :       0.00          0          0          0          0          0          0
  fullstrong       :       0.00          0          0          0          0          0          0
  allfullstrong    :       0.00          0          0          0          0          0          0
  random           :       0.00          0          0          0          0          0          0
Primal Heuristics  :       Time      Calls      Found
  LP solutions     :       0.00          -          0
  pseudo solutions :       0.00          -          0
  oneopt           :       0.00          0          0
  coefdiving       :       0.00          0          0
  pscostdiving     :       0.00          0          0
  simplerounding   :       0.00          0          0
  rounding         :       0.00         12          0
  shifting         :       0.01          7          0
  intshifting      :       0.00          1          0
  fixandinfer      :       0.00          0          0
  feaspump         :       0.03          1          0
  fracdiving       :       0.00          0          0
  veclendiving     :       0.00          0          0
  intdiving        :       0.00          0          0
  actconsdiving    :       0.00          0          0
  objpscostdiving  :       0.00          0          0
  rootsoldiving    :       0.00          0          0
  linesearchdiving :       0.00          0          0
  guideddiving     :       0.00          0          0
  octane           :       0.00          0          0
  rens             :       0.14          1          0
  rins             :       0.00          0          0
  localbranching   :       0.00          0          0
  mutation         :       0.00          0          0
  crossover        :       0.00          0          0
  dins             :       0.00          0          0
LP                 :       Time      Calls Iterations  Iter/call   Iter/sec
  primal LP        :       0.01          0          0       0.00          -
  dual LP          :       0.08         14        769      54.93    9612.50
  barrier LP       :       0.00          0          0       0.00          -
  diving/probing LP:       0.03         27        575      21.30   19166.67
  strong branching :       0.63         72       8857     123.01   14058.73
    (at root node) :          -         34       4623     135.97          -
  conflict analysis:       0.00          0          0       0.00          -
B&B Tree           :
  number of runs   :          1
  nodes            :          5
  nodes (total)    :          5
  nodes left       :          0
  max depth        :          2
  max depth (total):          2
  backtracks       :          0 (0.0%)
  delayed cutoffs  :          0
  repropagations   :          1 (0 domain reductions, 0 cutoffs)
  avg switch length:       2.40
  switching time   :       0.01
Solution           :
  Solutions found  :          0 (0 improvements)
  Primal Bound     : infeasible
  Dual Bound       :          -
  Gap              :       0.00 %
  Root Dual Bound  : +8.54710347052904e+03
